CPXPARAM_MIP_Strategy_NodeSelect#P39#1#CPXPARAM_MIP_Strategy_PresolveNode#P41#0#2.413032#0.474990
CPXPARAM_MIP_Strategy_NodeSelect#P39#1#CPXPARAM_MIP_Strategy_PresolveNode#P41#1#2.767851#0.544833
CPXPARAM_MIP_Strategy_NodeSelect#P39#1#CPXPARAM_MIP_Strategy_PresolveNode#P41#2#3.724886#0.733219
CPXPARAM_MIP_Strategy_NodeSelect#P39#1#CPXPARAM_MIP_Strategy_SubAlgorithm#P45#1#5.080180#1.000000
CPXPARAM_MIP_Strategy_NodeSelect#P39#1#CPXPARAM_MIP_Strategy_SubAlgorithm#P45#2#2.492052#0.490544
CPXPARAM_MIP_Strategy_NodeSelect#P39#1#CPXPARAM_MIP_Strategy_SubAlgorithm#P45#3#2.709818#0.533410
CPXPARAM_MIP_Strategy_NodeSelect#P39#1#CPXPARAM_MIP_Strategy_SubAlgorithm#P45#4#3.922209#0.772061
CPXPARAM_MIP_Strategy_NodeSelect#P39#1#CPXPARAM_MIP_Strategy_SubAlgorithm#P45#5#3.922162#0.772052
CPXPARAM_MIP_Strategy_NodeSelect#P39#2#CPXPARAM_MIP_Strategy_PresolveNode#P41#0#3.922203#0.772060
CPXPARAM_MIP_Strategy_NodeSelect#P39#2#CPXPARAM_MIP_Strategy_PresolveNode#P41#1#2.616438#0.515029
CPXPARAM_MIP_Strategy_NodeSelect#P39#3#CPXPARAM_MIP_Strategy_PresolveNode#P41#1#2.616413#0.515024
